1 995 5
2 796 5
6 762 5
7 750 5
31 742 5
273 739 5
645 725 5



1 944 5
2 862 5
3 809 5
4 772 5
11 765 5
98 748 5
126 740 5
176 727 5



1 873 5
2 813 5
10 782 5
14 736 5
263 734 5
836 728 5



1 963 5
2 836 5
4 778 5
9 774 5
13 772 5
16 771 5
28 770 5
61 762 5
64 735 5
997 722 5



1 1032 5
2 902 5
3 812 5
4 793 5
8 790 5
13 766 5
67 754 5
135 747 5
157 735 5



